proyfinal/src/viki/013/experimentInOfficeAgust.take6.output/66d02ffa-eb60-4522-9bd4-605eea3a7414.als.dat
{'cnf.clauses': '118081',
 'cnf.totvars': '69608',
 'conflict literals': '90',
 'conflicts': '35',
 'decisions': '10762',
 'memused.mb': '14.60',
 'outcome': 'UNSAT',
 'propagations': '45930',
 'restarts': '1',
 'solver.msecs': 22,
 'task.msecs': 93}
