proyfinal/src/viki/013/experimentInOfficeAgust.take6.output/66d02ffa-eb60-4522-9bd4-605eea3a7414.als.out
Reading from standard input... Use '--help' for help.
============================[ Problem Statistics ]=============================
|                                                                             |
|  Number of variables:         69608                                         |
|  Number of clauses:          118081                                         |
|  Parse time:                   0.02 s                                       |
|                                                                             |
============================[ Search Statistics ]==============================
| Conflicts |          ORIGINAL         |          LEARNT          | Progress |
|           |    Vars  Clauses Literals |    Limit  Clauses Lit/Cl |          |
===============================================================================
===============================================================================
restarts              : 1
conflicts             : 35             (1560 /sec)
decisions             : 10762          (0.00 % random) (479697 /sec)
propagations          : 45930          (2047248 /sec)
conflict literals     : 90             (2.17 % deleted)
Memory used           : 14.60 MB
CPU time              : 0.022435 s

UNSATISFIABLE
